NAME : 0
COMMENT : CVRP Instance
TYPE : CVRP
DIMENSION : 627
EDGE_WEIGHT_TYPE : EUC_2D
CAPACITY : 110
NODE_COORD_SECTION
1	0.0	0.0
2	816.0	981.0
3	349.0	338.0
4	22.0	205.0
5	385.0	344.0
6	913.0	54.0
7	410.0	410.0
8	108.0	298.0
9	280.0	512.0
10	335.0	312.0
11	155.0	336.0
12	64.0	98.0
13	64.0	184.0
14	874.0	922.0
15	513.0	345.0
16	516.0	316.0
17	403.0	276.0
18	407.0	310.0
19	161.0	312.0
20	931.0	13.0
21	371.0	380.0
22	460.0	357.0
23	455.0	345.0
24	796.0	940.0
25	811.0	111.0
26	360.0	338.0
27	932.0	60.0
28	803.0	989.0
29	882.0	959.0
30	2.0	58.0
31	740.0	917.0
32	939.0	22.0
33	53.0	202.0
34	360.0	409.0
35	802.0	863.0
36	326.0	268.0
37	565.0	473.0
38	828.0	21.0
39	311.0	537.0
40	868.0	36.0
41	2.0	246.0
42	243.0	431.0
43	58.0	191.0
44	756.0	985.0
45	900.0	104.0
46	281.0	633.0
47	42.0	237.0
48	771.0	961.0
49	290.0	453.0
50	289.0	346.0
51	27.0	123.0
52	16.0	181.0
53	960.0	960.0
54	457.0	383.0
55	759.0	856.0
56	10.0	179.0
57	62.0	165.0
58	297.0	197.0
59	2.0	151.0
60	491.0	292.0
61	124.0	102.0
62	536.0	441.0
63	374.0	246.0
64	778.0	976.0
65	854.0	959.0
66	740.0	836.0
67	26.0	238.0
68	875.0	125.0
69	935.0	116.0
70	255.0	411.0
71	313.0	340.0
72	91.0	159.0
73	369.0	362.0
74	341.0	352.0
75	363.0	286.0
76	366.0	242.0
77	832.0	961.0
78	443.0	397.0
79	863.0	999.0
80	944.0	188.0
81	866.0	933.0
82	644.0	495.0
83	59.0	233.0
84	890.0	960.0
85	373.0	308.0
86	73.0	84.0
87	467.0	337.0
88	291.0	307.0
89	657.0	858.0
90	394.0	290.0
91	273.0	161.0
92	288.0	89.0
93	354.0	274.0
94	456.0	206.0
95	421.0	275.0
96	476.0	325.0
97	447.0	183.0
98	320.0	282.0
99	768.0	854.0
100	355.0	447.0
101	415.0	250.0
102	941.0	48.0
103	432.0	303.0
104	834.0	982.0
105	814.0	93.0
106	930.0	930.0
107	562.0	465.0
108	430.0	495.0
109	450.0	472.0
110	417.0	234.0
111	25.0	204.0
112	260.0	351.0
113	441.0	312.0
114	957.0	1.0
115	837.0	881.0
116	921.0	27.0
117	452.0	219.0
118	781.0	931.0
119	308.0	258.0
120	354.0	393.0
121	879.0	40.0
122	272.0	230.0
123	162.0	158.0
124	19.0	284.0
125	361.0	273.0
126	392.0	255.0
127	53.0	201.0
128	395.0	97.0
129	468.0	176.0
130	330.0	293.0
131	353.0	383.0
132	318.0	435.0
133	252.0	364.0
134	603.0	555.0
135	134.0	280.0
136	865.0	985.0
137	343.0	194.0
138	110.0	159.0
139	355.0	341.0
140	437.0	439.0
141	26.0	137.0
142	801.0	157.0
143	547.0	92.0
144	369.0	319.0
145	749.0	958.0
146	298.0	337.0
147	799.0	21.0
148	430.0	307.0
149	273.0	556.0
150	246.0	342.0
151	805.0	824.0
152	324.0	354.0
153	906.0	80.0
154	513.0	397.0
155	321.0	107.0
156	350.0	280.0
157	957.0	194.0
158	954.0	4.0
159	36.0	314.0
160	293.0	397.0
161	227.0	279.0
162	926.0	68.0
163	407.0	307.0
164	5.0	137.0
165	793.0	990.0
166	26.0	198.0
167	34.0	187.0
168	134.0	405.0
169	371.0	329.0
170	44.0	181.0
171	79.0	470.0
172	869.0	855.0
173	918.0	112.0
174	916.0	33.0
175	789.0	126.0
176	391.0	378.0
177	427.0	333.0
178	760.0	921.0
179	384.0	472.0
180	229.0	348.0
181	120.0	223.0
182	120.0	308.0
183	86.0	28.0
184	933.0	368.0
185	63.0	146.0
186	897.0	138.0
187	258.0	514.0
188	677.0	899.0
189	881.0	94.0
190	724.0	977.0
191	405.0	288.0
192	852.0	955.0
193	461.0	318.0
194	311.0	501.0
195	574.0	343.0
196	911.0	215.0
197	943.0	0.0
198	690.0	419.0
199	328.0	441.0
200	448.0	250.0
201	309.0	266.0
202	907.0	187.0
203	336.0	466.0
204	836.0	977.0
205	22.0	201.0
206	543.0	274.0
207	336.0	367.0
208	316.0	400.0
209	348.0	311.0
210	404.0	378.0
211	378.0	494.0
212	267.0	320.0
213	53.0	262.0
214	215.0	420.0
215	329.0	385.0
216	219.0	291.0
217	648.0	516.0
218	111.0	262.0
219	366.0	374.0
220	355.0	614.0
221	890.0	41.0
222	344.0	440.0
223	393.0	390.0
224	97.0	418.0
225	125.0	26.0
226	419.0	399.0
227	348.0	354.0
228	370.0	191.0
229	446.0	504.0
230	319.0	378.0
231	984.0	34.0
232	76.0	237.0
233	239.0	411.0
234	842.0	116.0
235	496.0	310.0
236	866.0	137.0
237	140.0	371.0
238	502.0	399.0
239	381.0	451.0
240	811.0	953.0
241	374.0	380.0
242	809.0	959.0
243	285.0	434.0
244	47.0	224.0
245	858.0	950.0
246	8.0	298.0
247	380.0	340.0
248	931.0	185.0
249	977.0	994.0
250	400.0	343.0
251	375.0	245.0
252	882.0	1.0
253	819.0	990.0
254	443.0	296.0
255	2.0	162.0
256	13.0	130.0
257	44.0	243.0
258	869.0	131.0
259	150.0	210.0
260	937.0	139.0
261	372.0	329.0
262	408.0	231.0
263	65.0	244.0
264	440.0	468.0
265	382.0	359.0
266	937.0	219.0
267	407.0	321.0
268	351.0	381.0
269	27.0	222.0
270	406.0	421.0
271	122.0	147.0
272	850.0	64.0
273	31.0	228.0
274	591.0	348.0
275	356.0	366.0
276	107.0	207.0
277	252.0	334.0
278	306.0	365.0
279	410.0	335.0
280	103.0	110.0
281	303.0	286.0
282	207.0	95.0
283	838.0	999.0
284	421.0	235.0
285	348.0	366.0
286	19.0	168.0
287	75.0	177.0
288	377.0	321.0
289	577.0	203.0
290	352.0	210.0
291	417.0	359.0
292	896.0	18.0
293	302.0	396.0
294	996.0	984.0
295	505.0	582.0
296	924.0	883.0
297	337.0	321.0
298	382.0	299.0
299	407.0	366.0
300	828.0	893.0
301	399.0	477.0
302	935.0	73.0
303	360.0	355.0
304	343.0	300.0
305	388.0	223.0
306	346.0	202.0
307	364.0	182.0
308	829.0	993.0
309	953.0	97.0
310	498.0	325.0
311	435.0	300.0
312	485.0	428.0
313	846.0	988.0
314	322.0	244.0
315	52.0	206.0
316	841.0	933.0
317	363.0	131.0
318	342.0	397.0
319	826.0	808.0
320	318.0	307.0
321	278.0	284.0
322	302.0	337.0
323	50.0	202.0
324	536.0	328.0
325	895.0	57.0
326	360.0	244.0
327	652.0	883.0
328	49.0	173.0
329	118.0	114.0
330	399.0	248.0
331	189.0	460.0
332	409.0	509.0
333	322.0	430.0
334	446.0	249.0
335	313.0	138.0
336	299.0	252.0
337	998.0	981.0
338	998.0	88.0
339	856.0	102.0
340	402.0	396.0
341	895.0	90.0
342	780.0	109.0
343	476.0	361.0
344	348.0	349.0
345	916.0	243.0
346	35.0	140.0
347	784.0	14.0
348	71.0	185.0
349	633.0	953.0
350	262.0	285.0
351	124.0	396.0
352	396.0	304.0
353	32.0	168.0
354	677.0	971.0
355	304.0	292.0
356	529.0	293.0
357	46.0	150.0
358	351.0	250.0
359	288.0	195.0
360	897.0	61.0
361	85.0	90.0
362	272.0	364.0
363	997.0	91.0
364	941.0	143.0
365	285.0	275.0
366	67.0	257.0
367	854.0	89.0
368	385.0	398.0
369	909.0	58.0
370	777.0	868.0
371	243.0	125.0
372	515.0	327.0
373	798.0	946.0
374	290.0	418.0
375	722.0	954.0
376	289.0	296.0
377	863.0	67.0
378	429.0	362.0
379	347.0	427.0
380	813.0	906.0
381	963.0	76.0
382	305.0	467.0
383	136.0	630.0
384	920.0	788.0
385	351.0	404.0
386	823.0	36.0
387	645.0	99.0
388	311.0	377.0
389	441.0	411.0
390	445.0	649.0
391	347.0	348.0
392	323.0	299.0
393	423.0	376.0
394	834.0	952.0
395	419.0	416.0
396	398.0	349.0
397	70.0	197.0
398	96.0	330.0
399	43.0	363.0
400	875.0	131.0
401	392.0	351.0
402	778.0	723.0
403	26.0	151.0
404	485.0	222.0
405	346.0	321.0
406	848.0	43.0
407	874.0	98.0
408	213.0	413.0
409	887.0	131.0
410	988.0	37.0
411	385.0	360.0
412	309.0	171.0
413	49.0	285.0
414	220.0	333.0
415	865.0	920.0
416	403.0	458.0
417	405.0	304.0
418	766.0	965.0
419	850.0	830.0
420	952.0	43.0
421	256.0	299.0
422	640.0	291.0
423	47.0	217.0
424	270.0	427.0
425	779.0	916.0
426	355.0	366.0
427	331.0	528.0
428	430.0	373.0
429	487.0	494.0
430	327.0	382.0
431	3.0	275.0
432	344.0	355.0
433	0.0	105.0
434	170.0	217.0
435	884.0	90.0
436	868.0	958.0
437	389.0	384.0
438	94.0	520.0
439	94.0	142.0
440	46.0	121.0
441	318.0	448.0
442	403.0	257.0
443	438.0	261.0
444	6.0	148.0
445	781.0	928.0
446	457.0	450.0
447	311.0	368.0
448	149.0	200.0
449	768.0	997.0
450	561.0	419.0
451	280.0	374.0
452	69.0	250.0
453	787.0	222.0
454	330.0	372.0
455	353.0	232.0
456	425.0	377.0
457	953.0	32.0
458	110.0	233.0
459	895.0	967.0
460	424.0	409.0
461	499.0	588.0
462	344.0	276.0
463	700.0	832.0
464	877.0	107.0
465	782.0	509.0
466	149.0	217.0
467	283.0	201.0
468	766.0	889.0
469	889.0	134.0
470	810.0	943.0
471	398.0	280.0
472	834.0	128.0
473	358.0	396.0
474	294.0	288.0
475	264.0	261.0
476	346.0	378.0
477	815.0	72.0
478	205.0	175.0
479	395.0	280.0
480	784.0	936.0
481	328.0	253.0
482	787.0	920.0
483	379.0	331.0
484	53.0	234.0
485	956.0	44.0
486	195.0	21.0
487	337.0	167.0
488	227.0	387.0
489	400.0	74.0
490	208.0	210.0
491	794.0	979.0
492	884.0	38.0
493	902.0	49.0
494	893.0	98.0
495	189.0	50.0
496	309.0	370.0
497	991.0	62.0
498	878.0	892.0
499	606.0	192.0
500	574.0	221.0
501	344.0	428.0
502	386.0	307.0
503	29.0	101.0
504	325.0	448.0
505	376.0	335.0
506	361.0	337.0
507	931.0	30.0
508	792.0	925.0
509	950.0	153.0
510	436.0	505.0
511	393.0	357.0
512	256.0	360.0
513	427.0	189.0
514	136.0	317.0
515	980.0	141.0
516	326.0	470.0
517	525.0	338.0
518	883.0	917.0
519	966.0	45.0
520	32.0	278.0
521	488.0	237.0
522	712.0	837.0
523	384.0	238.0
524	926.0	69.0
525	235.0	266.0
526	431.0	283.0
527	378.0	355.0
528	410.0	382.0
529	24.0	200.0
530	387.0	230.0
531	718.0	776.0
532	51.0	285.0
533	685.0	118.0
534	862.0	957.0
535	812.0	961.0
536	398.0	241.0
537	753.0	310.0
538	73.0	228.0
539	296.0	416.0
540	448.0	182.0
541	50.0	182.0
542	376.0	299.0
543	321.0	412.0
544	381.0	217.0
545	748.0	837.0
546	991.0	52.0
547	356.0	228.0
548	272.0	370.0
549	443.0	185.0
550	67.0	270.0
551	329.0	300.0
552	19.0	390.0
553	491.0	312.0
554	868.0	921.0
555	415.0	429.0
556	134.0	208.0
557	322.0	188.0
558	28.0	250.0
559	435.0	250.0
560	395.0	457.0
561	141.0	6.0
562	95.0	42.0
563	872.0	967.0
564	339.0	194.0
565	551.0	270.0
566	432.0	301.0
567	776.0	954.0
568	291.0	587.0
569	407.0	322.0
570	396.0	397.0
571	748.0	95.0
572	299.0	475.0
573	890.0	96.0
574	376.0	371.0
575	976.0	29.0
576	350.0	359.0
577	71.0	182.0
578	387.0	212.0
579	211.0	225.0
580	260.0	316.0
581	416.0	322.0
582	389.0	357.0
583	363.0	340.0
584	29.0	117.0
585	820.0	993.0
586	819.0	22.0
587	402.0	389.0
588	900.0	36.0
589	11.0	250.0
590	967.0	69.0
591	431.0	139.0
592	69.0	240.0
593	460.0	406.0
594	944.0	25.0
595	577.0	500.0
596	900.0	107.0
597	34.0	159.0
598	308.0	302.0
599	944.0	17.0
600	399.0	309.0
601	88.0	63.0
602	790.0	931.0
603	859.0	799.0
604	243.0	279.0
605	216.0	170.0
606	273.0	257.0
607	425.0	192.0
608	889.0	46.0
609	946.0	41.0
610	747.0	992.0
611	898.0	841.0
612	651.0	874.0
613	317.0	336.0
614	668.0	404.0
615	297.0	284.0
616	985.0	734.0
617	354.0	332.0
618	547.0	464.0
619	909.0	137.0
620	467.0	326.0
621	82.0	238.0
622	22.0	204.0
623	382.0	468.0
624	272.0	446.0
625	691.0	77.0
626	157.0	302.0
627	579.0	173.0
DEMAND_SECTION
1	0
2	5
3	8
4	8
5	7
6	5
7	9
8	5
9	5
10	9
11	9
12	7
13	5
14	10
15	8
16	10
17	5
18	5
19	8
20	7
21	10
22	9
23	9
24	8
25	6
26	9
27	7
28	10
29	6
30	9
31	9
32	10
33	7
34	7
35	6
36	7
37	6
38	5
39	9
40	7
41	6
42	7
43	7
44	9
45	7
46	6
47	6
48	6
49	6
50	9
51	7
52	6
53	7
54	6
55	5
56	10
57	5
58	8
59	8
60	5
61	5
62	9
63	10
64	6
65	7
66	6
67	8
68	10
69	7
70	6
71	7
72	6
73	8
74	8
75	9
76	10
77	10
78	10
79	6
80	9
81	10
82	5
83	6
84	10
85	9
86	8
87	8
88	7
89	5
90	8
91	7
92	7
93	10
94	10
95	8
96	7
97	5
98	5
99	7
100	6
101	10
102	7
103	5
104	8
105	8
106	8
107	10
108	7
109	6
110	10
111	10
112	8
113	8
114	7
115	5
116	10
117	5
118	6
119	9
120	9
121	7
122	5
123	10
124	8
125	9
126	6
127	5
128	8
129	6
130	5
131	8
132	9
133	10
134	9
135	10
136	7
137	5
138	10
139	7
140	10
141	9
142	10
143	8
144	5
145	10
146	7
147	8
148	5
149	6
150	8
151	9
152	8
153	10
154	9
155	8
156	10
157	8
158	9
159	7
160	10
161	5
162	9
163	10
164	6
165	7
166	10
167	5
168	5
169	6
170	10
171	10
172	6
173	7
174	10
175	6
176	6
177	6
178	7
179	8
180	5
181	6
182	5
183	10
184	7
185	5
186	9
187	6
188	8
189	8
190	5
191	6
192	8
193	7
194	8
195	5
196	7
197	6
198	10
199	5
200	9
201	10
202	10
203	8
204	10
205	5
206	10
207	7
208	6
209	7
210	8
211	10
212	7
213	7
214	5
215	7
216	6
217	7
218	8
219	10
220	9
221	8
222	7
223	8
224	8
225	8
226	5
227	10
228	9
229	8
230	8
231	6
232	8
233	8
234	8
235	10
236	8
237	9
238	9
239	6
240	7
241	8
242	7
243	6
244	10
245	8
246	5
247	8
248	6
249	7
250	8
251	5
252	7
253	10
254	8
255	10
256	6
257	6
258	7
259	6
260	10
261	8
262	5
263	8
264	8
265	8
266	5
267	9
268	5
269	9
270	7
271	6
272	8
273	8
274	8
275	7
276	5
277	9
278	6
279	9
280	8
281	8
282	5
283	9
284	10
285	7
286	6
287	7
288	8
289	9
290	5
291	9
292	9
293	5
294	10
295	9
296	5
297	8
298	10
299	10
300	9
301	10
302	8
303	8
304	6
305	9
306	6
307	6
308	8
309	5
310	7
311	6
312	7
313	8
314	9
315	8
316	6
317	10
318	8
319	6
320	10
321	10
322	7
323	6
324	9
325	5
326	7
327	8
328	5
329	5
330	7
331	5
332	8
333	6
334	6
335	7
336	7
337	8
338	9
339	7
340	6
341	7
342	8
343	6
344	10
345	9
346	9
347	7
348	10
349	10
350	8
351	10
352	7
353	5
354	5
355	8
356	8
357	9
358	5
359	9
360	10
361	8
362	5
363	6
364	10
365	10
366	8
367	5
368	5
369	10
370	8
371	10
372	8
373	5
374	7
375	10
376	6
377	9
378	9
379	5
380	8
381	5
382	10
383	7
384	10
385	9
386	6
387	8
388	5
389	6
390	5
391	6
392	8
393	9
394	6
395	10
396	9
397	10
398	5
399	10
400	8
401	10
402	7
403	6
404	6
405	9
406	5
407	9
408	8
409	5
410	10
411	5
412	9
413	8
414	7
415	7
416	10
417	8
418	6
419	9
420	8
421	6
422	6
423	7
424	7
425	10
426	7
427	5
428	7
429	6
430	5
431	6
432	5
433	6
434	6
435	6
436	10
437	9
438	6
439	5
440	5
441	6
442	8
443	8
444	7
445	7
446	6
447	10
448	8
449	10
450	9
451	5
452	5
453	5
454	8
455	9
456	6
457	9
458	10
459	7
460	9
461	10
462	5
463	5
464	9
465	8
466	8
467	10
468	6
469	10
470	5
471	10
472	9
473	10
474	7
475	5
476	10
477	8
478	6
479	6
480	9
481	8
482	10
483	7
484	5
485	8
486	9
487	7
488	8
489	9
490	6
491	9
492	7
493	10
494	6
495	5
496	9
497	7
498	5
499	10
500	10
501	6
502	6
503	9
504	10
505	7
506	9
507	7
508	5
509	6
510	6
511	8
512	10
513	10
514	7
515	7
516	5
517	10
518	10
519	7
520	7
521	7
522	8
523	10
524	5
525	6
526	6
527	7
528	5
529	5
530	10
531	10
532	8
533	5
534	9
535	10
536	9
537	7
538	10
539	7
540	8
541	6
542	6
543	7
544	5
545	6
546	7
547	10
548	5
549	5
550	10
551	8
552	10
553	7
554	8
555	8
556	6
557	6
558	7
559	6
560	10
561	6
562	7
563	9
564	10
565	5
566	8
567	7
568	6
569	7
570	6
571	10
572	10
573	9
574	5
575	5
576	6
577	8
578	7
579	9
580	7
581	5
582	8
583	9
584	6
585	5
586	8
587	8
588	8
589	8
590	6
591	10
592	8
593	7
594	6
595	7
596	8
597	8
598	8
599	9
600	8
601	5
602	7
603	9
604	9
605	9
606	8
607	8
608	10
609	5
610	10
611	8
612	10
613	10
614	9
615	6
616	7
617	5
618	10
619	9
620	10
621	7
622	9
623	8
624	6
625	5
626	8
627	7
DEPOT_SECTION
1
-1
EOF
